max: +x11+x12+x13+x14+x21+x22+x23+x24+x31+x32+x33+x34+x41+x42+x43+x44;
+x23+x32-4x11 >= 0;
+x31+x24+x33-4x12 >= 0;
+x32+x21+x34-4x13 >= 0;
+x33+x22-4x14 >= 0;
+x13+x33+x42-4x21 >= 0;
+x14+x41+x34+x43-4x22 >= 0;
+x11+x42+x31+x44-4x23 >= 0;
+x12+x43+x32-4x24 >= 0;
+x23+x12+x43-4x31 >= 0;
+x11+x24+x13+x44-4x32 >= 0;
+x21+x12+x41+x14-4x33 >= 0;
+x22+x13+x42-4x34 >= 0;
+x33+x22-4x41 >= 0;
+x21+x34+x23-4x42 >= 0;
+x31+x22+x24-4x43 >= 0;
+x32+x23-4x44 >= 0;
+x23+x32+4x11 <= 8;
+x31+x24+x33+4x12 <= 8;
+x32+x21+x34+4x13 <= 8;
+x33+x22+4x14 <= 8;
+x13+x33+x42+4x21 <= 8;
+x14+x41+x34+x43+4x22 <= 8;
+x11+x42+x31+x44+4x23 <= 8;
+x12+x43+x32+4x24 <= 8;
+x23+x12+x43+4x31 <= 8;
+x11+x24+x13+x44+4x32 <= 8;
+x21+x12+x41+x14+4x33 <= 8;
+x22+x13+x42+4x34 <= 8;
+x33+x22+4x41 <= 8;
+x21+x34+x23+4x42 <= 8;
+x31+x22+x24+4x43 <= 8;
+x32+x23+4x44 <= 8;
bin x11,x12,x13,x14,x21,x22,x23,x24,x31,x32,x33,x34,x41,x42,x43,x44;